30
5
42020
0
0
53 56 48 55 57
1
0
54 54 53 55 53
2
0
46 48 41 50 46
3
0
42 42 38 42 39
4
0
51 48 44 50 46
5
0
73 73 73 72 69
6
0
49 50 47 47 52
7
0
55 56 52 57 57
8
0
30 33 29 34 33
9
0
45 48 47 50 46
10
0
65 66 65 67 67
11
0
45 46 50 48 47
12
0
58 54 59 58 56
13
0
34 38 34 35 34
14
0
55 56 53 59 58
15
0
26 26 28 26 27
16
0
50 48 53 48 49
17
0
62 59 65 62 63
18
0
48 47 49 47 49
19
0
52 54 52 51 52
20
0
33 37 36 33 37
21
0
48 48 50 46 48
22
0
41 39 43 38 40
23
0
51 50 52 52 53
24
0
48 51 49 54 53
25
0
39 39 41 38 40
26
0
38 36 36 41 36
27
0
42 43 40 46 38
28
0
48 42 44 47 47
29
0
53 54 55 51 54
